
Gurobi 9.0.1 (linux64) logging started Fri May  1 00:22:37 2020

Gurobi Optimizer version 9.0.1 build v9.0.1rc0 (linux64)
Optimize a model with 1184 rows, 842 columns and 4340 nonzeros
Model fingerprint: 0x17dd5a73
Variable types: 0 continuous, 842 integer (810 binary)
Coefficient statistics:
  Matrix range     [1e+00, 8e+00]
  Objective range  [1e+00, 1e+02]
  Bounds range     [1e+00, 1e+00]
  RHS range        [1e+00, 9e+00]

User MIP start produced solution with objective 557 (0.00s)
Loaded user MIP start with objective 557

Presolve removed 480 rows and 316 columns
Presolve time: 0.01s
Presolved: 704 rows, 526 columns, 2912 nonzeros
Variable types: 0 continuous, 526 integer (498 binary)

Root relaxation: objective 3.967500e+02, 513 iterations, 0.02 seconds

    Nodes    |    Current Node    |     Objective Bounds      |     Work
 Expl Unexpl |  Obj  Depth IntInf | Incumbent    BestBd   Gap | It/Node Time

     0     0  396.75000    0   16  557.00000  396.75000  28.8%     -    0s
     0     0  424.00000    0   32  557.00000  424.00000  23.9%     -    0s
     0     0  424.00000    0   46  557.00000  424.00000  23.9%     -    0s
     0     0  424.00000    0   71  557.00000  424.00000  23.9%     -    0s
     0     0  424.00000    0   61  557.00000  424.00000  23.9%     -    0s
     0     0  424.00000    0   23  557.00000  424.00000  23.9%     -    0s
     0     0  424.00000    0   26  557.00000  424.00000  23.9%     -    0s
     0     0  424.00000    0   49  557.00000  424.00000  23.9%     -    0s
     0     0  424.00000    0   46  557.00000  424.00000  23.9%     -    0s
     0     0  424.00000    0   47  557.00000  424.00000  23.9%     -    0s
     0     0  424.00000    0   47  557.00000  424.00000  23.9%     -    0s
     0     2  424.00000    0   47  557.00000  424.00000  23.9%     -    0s
H  590   349                     549.0000000  438.00000  20.2%  43.1    3s
H  611   330                     545.0000000  438.00000  19.6%  42.7    3s
H  719   344                     543.0000000  438.00000  19.3%  42.1    3s
  1079   472  535.08121   50   77  543.00000  440.00000  19.0%  39.3    5s
H 1746   753                     539.0000000  445.00000  17.4%  40.9    7s
H 1814   601                     517.0000000  445.00000  13.9%  40.7    7s
H 1817   556                     512.0000000  445.00000  13.1%  40.6    7s
H 1844   529                     507.0000000  445.18207  12.2%  40.7    8s
H 1871   510                     505.0000000  445.18207  11.8%  41.1    8s
  2242   664  497.61905   47  133  505.00000  450.87619  10.7%  42.6   10s
* 2437   635              63     501.0000000  452.72221  9.64%  43.2   11s
* 2444   607              64     500.0000000  452.72221  9.46%  43.1   11s
H 2695   723                     498.0000000  453.61904  8.91%  44.0   12s
H 2838   761                     496.0000000  453.72312  8.52%  43.5   12s
  3327   956     cutoff   32       496.00000  457.46154  7.77%  44.5   15s
H 3433   950                     494.0000000  457.80628  7.33%  44.1   15s
* 3434   365              85     481.0000000  457.80628  4.82%  44.1   15s
* 3436   346              83     480.0000000  457.80628  4.62%  44.1   15s
H 3693   283                     473.0000000  460.99999  2.54%  44.3   16s
H 3902   302                     470.0000000  461.28571  1.85%  45.8   17s
  4178   366  467.62424   46   72  470.00000  462.66013  1.56%  47.6   20s
H 4462   359                     469.0000000  463.39462  1.20%  48.4   21s
* 4466   289              40     468.0000000  463.39462  0.98%  48.3   21s
  5182   159     cutoff   30       468.00000  465.48898  0.54%  51.9   25s

Cutting planes:
  Learned: 6
  Gomory: 14
  Cover: 15
  Implied bound: 135
  Projected implied bound: 1
  MIR: 10
  StrongCG: 1
  Flow cover: 18
  Inf proof: 10
  Zero half: 16
  RLT: 1
  Relax-and-lift: 5

Explored 5423 nodes (286315 simplex iterations) in 26.11 seconds
Thread count was 1 (of 40 available processors)

Solution count 10: 468 469 470 ... 500

Optimal solution found (tolerance 1.00e-04)
Best objective 4.680000000000e+02, best bound 4.680000000000e+02, gap 0.0000%

User-callback calls 19548, time in user-callback 0.02 sec
